min: 8382 z_0 + 5170 z_1 + 5617 z_2 + 4307 z_3 + 5783 z_4 + 5319 z_5 + 3680 z_6 + 48 x_0_0 + 36 x_0_1 + 46 x_0_2 + 1 x_0_3 + 28 x_0_4 + 27 x_0_5 + 23 x_0_6 + 21 x_1_0 + 27 x_1_1 + 3 x_1_2 + 34 x_1_3 + 24 x_1_4 + 9 x_1_5 + 26 x_1_6 + 22 x_2_0 + 15 x_2_1 + 39 x_2_2 + 41 x_2_3 + 10 x_2_4 + 47 x_2_5 + 30 x_2_6 + 32 x_3_0 + 33 x_3_1 + 2 x_3_2 + 36 x_3_3 + 22 x_3_4 + 31 x_3_5 + 34 x_3_6 + 42 x_4_0 + 21 x_4_1 + 42 x_4_2 + 32 x_4_3 + 41 x_4_4 + 10 x_4_5 + 13 x_4_6 + 21 x_5_0 + 4 x_5_1 + 15 x_5_2 + 48 x_5_3 + 22 x_5_4 + 48 x_5_5 + 2 x_5_6 + 26 x_6_0 + 13 x_6_1 + 11 x_6_2 + 44 x_6_3 + 42 x_6_4 + 41 x_6_5 + 14 x_6_6 + 8 y_0_0 + 33 y_0_1 + 25 y_0_2 + 41 y_0_3 + 50 y_0_4 + 2 y_0_5 + 35 y_0_6 + 13 y_0_7 + 46 y_0_8 + 15 y_1_0 + 10 y_1_1 + 19 y_1_2 + 24 y_1_3 + 25 y_1_4 + 15 y_1_5 + 27 y_1_6 + 19 y_1_7 + 30 y_1_8 + 49 y_2_0 + 37 y_2_1 + 36 y_2_2 + 2 y_2_3 + 16 y_2_4 + 43 y_2_5 + 10 y_2_6 + 24 y_2_7 + 49 y_2_8 + 13 y_3_0 + 34 y_3_1 + 20 y_3_2 + 1 y_3_3 + 25 y_3_4 + 10 y_3_5 + 2 y_3_6 + 48 y_3_7 + 49 y_3_8 + 22 y_4_0 + 2 y_4_1 + 12 y_4_2 + 8 y_4_3 + 48 y_4_4 + 15 y_4_5 + 31 y_4_6 + 36 y_4_7 + 14 y_4_8 + 17 y_5_0 + 40 y_5_1 + 38 y_5_2 + 17 y_5_3 + 29 y_5_4 + 23 y_5_5 + 41 y_5_6 + 35 y_5_7 + 6 y_5_8 + 14 y_6_0 + 45 y_6_1 + 11 y_6_2 + 37 y_6_3 + 7 y_6_4 + 19 y_6_5 + 18 y_6_6 + 25 y_6_7 + 43 y_6_8;

x_0_0 + x_0_1 + x_0_2 + x_0_3 + x_0_4 + x_0_5 + x_0_6 <= 306;
x_1_0 + x_1_1 + x_1_2 + x_1_3 + x_1_4 + x_1_5 + x_1_6 <= 258;
x_2_0 + x_2_1 + x_2_2 + x_2_3 + x_2_4 + x_2_5 + x_2_6 <= 140;
x_3_0 + x_3_1 + x_3_2 + x_3_3 + x_3_4 + x_3_5 + x_3_6 <= 285;
x_4_0 + x_4_1 + x_4_2 + x_4_3 + x_4_4 + x_4_5 + x_4_6 <= 201;
x_5_0 + x_5_1 + x_5_2 + x_5_3 + x_5_4 + x_5_5 + x_5_6 <= 319;
x_6_0 + x_6_1 + x_6_2 + x_6_3 + x_6_4 + x_6_5 + x_6_6 <= 121;

x_0_0 + x_1_0 + x_2_0 + x_3_0 + x_4_0 + x_5_0 + x_6_0 - y_0_0 - y_0_1 - y_0_2 - y_0_3 - y_0_4 - y_0_5 - y_0_6 - y_0_7 - y_0_8 = 0;
x_0_1 + x_1_1 + x_2_1 + x_3_1 + x_4_1 + x_5_1 + x_6_1 - y_1_0 - y_1_1 - y_1_2 - y_1_3 - y_1_4 - y_1_5 - y_1_6 - y_1_7 - y_1_8 = 0;
x_0_2 + x_1_2 + x_2_2 + x_3_2 + x_4_2 + x_5_2 + x_6_2 - y_2_0 - y_2_1 - y_2_2 - y_2_3 - y_2_4 - y_2_5 - y_2_6 - y_2_7 - y_2_8 = 0;
x_0_3 + x_1_3 + x_2_3 + x_3_3 + x_4_3 + x_5_3 + x_6_3 - y_3_0 - y_3_1 - y_3_2 - y_3_3 - y_3_4 - y_3_5 - y_3_6 - y_3_7 - y_3_8 = 0;
x_0_4 + x_1_4 + x_2_4 + x_3_4 + x_4_4 + x_5_4 + x_6_4 - y_4_0 - y_4_1 - y_4_2 - y_4_3 - y_4_4 - y_4_5 - y_4_6 - y_4_7 - y_4_8 = 0;
x_0_5 + x_1_5 + x_2_5 + x_3_5 + x_4_5 + x_5_5 + x_6_5 - y_5_0 - y_5_1 - y_5_2 - y_5_3 - y_5_4 - y_5_5 - y_5_6 - y_5_7 - y_5_8 = 0;
x_0_6 + x_1_6 + x_2_6 + x_3_6 + x_4_6 + x_5_6 + x_6_6 - y_6_0 - y_6_1 - y_6_2 - y_6_3 - y_6_4 - y_6_5 - y_6_6 - y_6_7 - y_6_8 = 0;

y_0_0 + y_0_1 + y_0_2 + y_0_3 + y_0_4 + y_0_5 + y_0_6 + y_0_7 + y_0_8 - 128 z_0 <= 0;
y_1_0 + y_1_1 + y_1_2 + y_1_3 + y_1_4 + y_1_5 + y_1_6 + y_1_7 + y_1_8 - 302 z_1 <= 0;
y_2_0 + y_2_1 + y_2_2 + y_2_3 + y_2_4 + y_2_5 + y_2_6 + y_2_7 + y_2_8 - 760 z_2 <= 0;
y_3_0 + y_3_1 + y_3_2 + y_3_3 + y_3_4 + y_3_5 + y_3_6 + y_3_7 + y_3_8 - 412 z_3 <= 0;
y_4_0 + y_4_1 + y_4_2 + y_4_3 + y_4_4 + y_4_5 + y_4_6 + y_4_7 + y_4_8 - 404 z_4 <= 0;
y_5_0 + y_5_1 + y_5_2 + y_5_3 + y_5_4 + y_5_5 + y_5_6 + y_5_7 + y_5_8 - 695 z_5 <= 0;
y_6_0 + y_6_1 + y_6_2 + y_6_3 + y_6_4 + y_6_5 + y_6_6 + y_6_7 + y_6_8 - 462 z_6 <= 0;

y_0_0 + y_1_0 + y_2_0 + y_3_0 + y_4_0 + y_5_0 + y_6_0 = 161;
y_0_1 + y_1_1 + y_2_1 + y_3_1 + y_4_1 + y_5_1 + y_6_1 = 179;
y_0_2 + y_1_2 + y_2_2 + y_3_2 + y_4_2 + y_5_2 + y_6_2 = 68;
y_0_3 + y_1_3 + y_2_3 + y_3_3 + y_4_3 + y_5_3 + y_6_3 = 150;
y_0_4 + y_1_4 + y_2_4 + y_3_4 + y_4_4 + y_5_4 + y_6_4 = 118;
y_0_5 + y_1_5 + y_2_5 + y_3_5 + y_4_5 + y_5_5 + y_6_5 = 88;
y_0_6 + y_1_6 + y_2_6 + y_3_6 + y_4_6 + y_5_6 + y_6_6 = 140;
y_0_7 + y_1_7 + y_2_7 + y_3_7 + y_4_7 + y_5_7 + y_6_7 = 165;
y_0_8 + y_1_8 + y_2_8 + y_3_8 + y_4_8 + y_5_8 + y_6_8 = 196;

z_0 + z_1 + z_2 + z_3 + z_4 + z_5 + z_6 <= 4;

bin z_0, z_1, z_2, z_3, z_4, z_5, z_6;
